32	0

0	1	2
10	1	3
1	1	4
6	2	5	6
2	1	7
3	1	7
6	2	8	9
10	2	10	11
10	2	10	11
5	2	12	13
8	2	12	13
3	2	14	15
6	1	15
10	2	16	17
8	2	16	17
2	1	18
6	1	18
1	1	19
5	1	20
5	1	21
2	1	22
5	1	23
2	1	24
10	1	25
5	1	26
3	1	27
7	1	28
3	1	29
2	1	30
5	1	31
7	1	32
0	0
